speck_results/milp_results/speck_block_cipher_p32_k64_o32/key_equal_plaintext_greater/round_2/result_2.txt
% Generated FlatZinc statistics:
%%%mzn-stat: paths=0
%%%mzn-stat: flatBoolVars=1173
%%%mzn-stat: flatIntVars=405
%%%mzn-stat: flatBoolConstraints=9
%%%mzn-stat: flatIntConstraints=1259
%%%mzn-stat: evaluatedReifiedConstraints=1164
%%%mzn-stat: method="minimize"
%%%mzn-stat: flatTime=0.130266
%%%mzn-stat-end

speck_k64_p32_o32_r2, and window_size=2
carries modadd_0_1:[0, 0, 0, 0, 0, 0, 0, 0, 0, 0, 0, 0, 0, 0, 0, 0]
carries modadd_1_2:[0, 0, 0, 0, 0, 0, 0, 0, 0, 0, 0, 0, 0, 0, 0, 0]
carries modadd_1_7:[0, 0, 0, 0, 0, 0, 0, 0, 0, 0, 0, 0, 0, 0, 0, 0]
Plaintext:[0, 0, 0, 0, 0, 0, 0, 0, 0, 1, 0, 0, 0, 0, 0, 0, 1, 0, 0, 0, 0, 0, 0, 0, 0, 0, 0, 0, 0, 0, 0, 0]
intermediate_output_0_6_input:[0, 0, 0, 0, 0, 0, 0, 0, 0, 0, 0, 0, 0, 0, 0, 0, 0, 0, 0, 0, 0, 0, 0, 0, 0, 0, 0, 0, 0, 0, 1, 0]
cipher_output_1_12_input:[0, 0, 0, 0, 0, 0, 0, 0, 0, 0, 0, 0, 0, 0, 1, 0, 0, 0, 0, 0, 0, 0, 0, 0, 0, 0, 0, 0, 1, 0, 1, 0]
Probability: 1
% time elapsed: 0.23 s
----------
==========
% time elapsed: 0.24 s
%%%mzn-stat: nSolutions=1
%%%mzn-stat-end
